=== 테스트 결과 요약 ===
데이터셋           : xql662
사용 알고리즘      : MST
결과 파일          : output/xql662_MST.tour
정답 일치 여부     : 일치함
걸린 시간          : 4 ms
메모리 사용량      : 3712 KB
성능 상태          : 정상 실행됨

=== 비교 상세 로그 ===
헤더 차이 (라인 2)
GT   : COMMENT: Tour length 2513
내꺼 : COMMENT : Tour length 3552
노드 번호 차이 발견 (처음 일치하지 않은 라인 11)
GT   : 48
내꺼 : 42
TOUR_SECTION 비교 결과: 5 / 663 정확도: 0.754148%
